language Essence 1.3
$ generated by bacp-gen.pl with seed 960833342
$ edge probability 0.035
$ course loads in range 2..6
letting n_courses be 158
letting n_periods be 29
letting load_per_period_lb be 6
letting load_per_period_ub be 47
letting courses_per_period_lb be 5
letting courses_per_period_ub be 10
letting course_load be function(
1 --> 5,
2 --> 6,
3 --> 3,
4 --> 2,
5 --> 4,
6 --> 5,
7 --> 5,
8 --> 2,
9 --> 2,
10 --> 4,
11 --> 5,
12 --> 3,
13 --> 4,
14 --> 6,
15 --> 3,
16 --> 4,
17 --> 5,
18 --> 2,
19 --> 2,
20 --> 6,
21 --> 3,
22 --> 2,
23 --> 4,
24 --> 5,
25 --> 3,
26 --> 5,
27 --> 4,
28 --> 5,
29 --> 2,
30 --> 6,
31 --> 5,
32 --> 2,
33 --> 5,
34 --> 3,
35 --> 6,
36 --> 3,
37 --> 4,
38 --> 6,
39 --> 5,
40 --> 6,
41 --> 3,
42 --> 3,
43 --> 4,
44 --> 4,
45 --> 2,
46 --> 5,
47 --> 3,
48 --> 2,
49 --> 3,
50 --> 3,
51 --> 3,
52 --> 3,
53 --> 2,
54 --> 2,
55 --> 5,
56 --> 6,
57 --> 6,
58 --> 5,
59 --> 3,
60 --> 4,
61 --> 5,
62 --> 5,
63 --> 3,
64 --> 5,
65 --> 6,
66 --> 5,
67 --> 2,
68 --> 4,
69 --> 2,
70 --> 5,
71 --> 2,
72 --> 5,
73 --> 3,
74 --> 3,
75 --> 4,
76 --> 6,
77 --> 3,
78 --> 2,
79 --> 4,
80 --> 4,
81 --> 2,
82 --> 3,
83 --> 4,
84 --> 3,
85 --> 6,
86 --> 3,
87 --> 3,
88 --> 5,
89 --> 3,
90 --> 3,
91 --> 5,
92 --> 6,
93 --> 2,
94 --> 4,
95 --> 4,
96 --> 3,
97 --> 3,
98 --> 3,
99 --> 4,
100 --> 6,
101 --> 5,
102 --> 2,
103 --> 4,
104 --> 3,
105 --> 5,
106 --> 4,
107 --> 2,
108 --> 5,
109 --> 3,
110 --> 2,
111 --> 5,
112 --> 2,
113 --> 2,
114 --> 4,
115 --> 2,
116 --> 2,
117 --> 2,
118 --> 3,
119 --> 4,
120 --> 5,
121 --> 2,
122 --> 4,
123 --> 5,
124 --> 2,
125 --> 2,
126 --> 5,
127 --> 3,
128 --> 4,
129 --> 4,
130 --> 2,
131 --> 3,
132 --> 4,
133 --> 4,
134 --> 3,
135 --> 3,
136 --> 2,
137 --> 4,
138 --> 4,
139 --> 3,
140 --> 5,
141 --> 2,
142 --> 4,
143 --> 4,
144 --> 2,
145 --> 2,
146 --> 4,
147 --> 5,
148 --> 6,
149 --> 2,
150 --> 4,
151 --> 5,
152 --> 5,
153 --> 5,
154 --> 6,
155 --> 3,
156 --> 6,
157 --> 4,
158 --> 2
)
letting prerequisite be relation (
(42,45),
(9,46),
(15,47),
(4,48),
(34,49),
(31,50),
(21,51),
(26,52),
(24,53),
(44,54),
(20,55),
(16,56),
(14,57),
(3,58),
(4,59),
(9,60),
(31,61),
(13,62),
(19,63),
(39,64),
(18,65),
(18,66),
(42,67),
(32,68),
(19,69),
(20,70),
(40,71),
(28,72),
(30,73),
(15,74),
(12,75),
(10,76),
(33,77),
(31,78),
(37,79),
(9,80),
(11,81),
(6,82),
(17,83),
(28,84),
(32,85),
(14,86),
(24,87),
(9,88),
(21,89),
(6,90),
(41,91),
(11,92),
(9,93),
(32,94),
(14,95),
(24,96),
(22,97),
(33,98),
(7,99),
(11,100),
(5,101),
(20,102),
(10,103),
(41,104),
(34,105),
(23,106),
(37,107),
(27,108),
(10,109),
(18,110),
(8,111),
(28,112),
(13,113),
(21,114),
(33,115),
(37,116),
(20,117),
(29,118),
(12,119),
(15,120),
(14,121),
(44,122),
(19,123),
(24,124),
(18,125),
(33,126),
(40,127),
(22,128),
(14,129),
(125,130),
(99,131),
(77,132),
(100,133),
(108,134),
(110,135),
(107,136),
(106,137),
(49,138),
(125,139),
(89,140),
(62,141),
(109,142),
(56,143),
(126,144),
(79,145),
(129,146),
(110,147),
(79,148),
(118,149),
(76,150),
(115,151),
(88,152),
(113,153),
(89,154),
(118,155),
(56,156),
(119,157),
(109,158),
(105,133),
(18,88),
(124,158),
(25,109),
(22,49),
(35,82),
(33,76),
(41,45),
(44,121),
(87,148),
(13,126),
(36,99),
(23,83),
(6,106),
(74,133),
(17,54),
(18,73),
(32,50),
(73,158),
(40,111),
(29,120),
(26,125),
(38,66),
(27,104),
(2,61),
(29,48),
(36,65),
(31,63),
(25,111),
(43,77),
(52,151),
(37,55),
(102,133),
(3,101),
(112,147),
(27,121),
(35,53),
(12,126),
(99,152),
(60,134),
(55,137),
(99,142),
(5,56),
(42,82),
(80,141),
(21,62),
(35,101),
(35,125),
(25,122),
(74,148),
(109,141),
(93,152),
(12,74),
(26,45),
(31,128),
(29,53),
(9,120),
(22,102),
(23,127),
(19,86),
(89,156),
(45,142),
(8,51),
(65,153),
(25,82),
(11,54),
(41,66),
(92,152),
(5,83),
(12,48),
(19,106),
(16,122),
(12,94),
(12,117),
(62,147),
(24,79),
(71,136),
(65,138),
(80,151),
(24,82),
(87,149),
(112,156),
(120,153),
(63,131),
(36,89),
(65,132),
(1,79),
(102,145),
(80,144),
(96,140),
(28,115),
(1,128),
(1,129),
(117,134),
(13,46),
(22,54),
(40,60),
(13,85),
(64,138),
(77,137),
(18,67),
(118,150),
(103,132)
)

